p cnf 923 1904
1 -2 0
2 -1 0
3 4 0
5 4 0
-3 -5 -4 0
-6 4 -7 0
6 -4 -7 0
7 -4 -6 0
6 4 7 0
-7 0
8 9 0
10 9 0
-8 -10 -9 0
-5 9 -11 0
5 -9 -11 0
11 -9 -5 0
5 9 11 0
-11 0
12 13 0
14 13 0
-12 -14 -13 0
-10 13 -15 0
10 -13 -15 0
15 -13 -10 0
10 13 15 0
-15 0
16 17 0
18 17 0
-16 -18 -17 0
-14 17 -19 0
14 -17 -19 0
19 -17 -14 0
14 17 19 0
-19 0
20 21 0
22 21 0
-20 -22 -21 0
-16 21 -23 0
16 -21 -23 0
23 -21 -16 0
16 21 23 0
-23 0
24 25 0
26 25 0
-24 -26 -25 0
-22 25 -27 0
22 -25 -27 0
27 -25 -22 0
22 25 27 0
-27 0
28 29 0
30 29 0
-28 -30 -29 0
-26 29 -31 0
26 -29 -31 0
31 -29 -26 0
26 29 31 0
-31 0
32 33 0
34 33 0
-32 -34 -33 0
-30 33 -35 0
30 -33 -35 0
35 -33 -30 0
30 33 35 0
-35 0
20 36 0
24 36 0
28 36 0
32 36 0
37 36 0
-38 0
-34 36 -39 0
34 -36 -39 0
39 -36 -34 0
34 36 39 0
-39 0
40 41 0
42 41 0
-40 -42 -41 0
-43 41 -44 0
43 -41 -44 0
44 -41 -43 0
43 41 44 0
-44 0
45 46 0
47 46 0
-45 -47 -46 0
-42 46 -48 0
42 -46 -48 0
48 -46 -42 0
42 46 48 0
-48 0
49 50 0
51 50 0
-49 -51 -50 0
-47 50 -52 0
47 -50 -52 0
52 -50 -47 0
47 50 52 0
-52 0
53 54 0
55 54 0
-53 -55 -54 0
-51 54 -56 0
51 -54 -56 0
56 -54 -51 0
51 54 56 0
-56 0
57 58 0
59 58 0
-57 -59 -58 0
-55 58 -60 0
55 -58 -60 0
60 -58 -55 0
55 58 60 0
-60 0
61 62 0
63 62 0
-61 -63 -62 0
-59 62 -64 0
59 -62 -64 0
64 -62 -59 0
59 62 64 0
-64 0
65 66 0
67 66 0
-65 -67 -66 0
-63 66 -68 0
63 -66 -68 0
68 -66 -63 0
63 66 68 0
-68 0
69 70 0
71 70 0
-69 -71 -70 0
-67 70 -72 0
67 -70 -72 0
72 -70 -67 0
67 70 72 0
-72 0
73 74 0
75 74 0
-73 -75 -74 0
-71 74 -76 0
71 -74 -76 0
76 -74 -71 0
71 74 76 0
-76 0
65 77 0
69 77 0
73 77 0
78 77 0
-79 0
-75 77 -80 0
75 -77 -80 0
80 -77 -75 0
75 77 80 0
-80 0
81 82 0
83 82 0
-81 -83 -82 0
-84 82 -85 0
84 -82 -85 0
85 -82 -84 0
84 82 85 0
-85 0
86 87 0
88 87 0
-86 -88 -87 0
-83 87 -89 0
83 -87 -89 0
89 -87 -83 0
83 87 89 0
-89 0
90 91 0
92 91 0
-90 -92 -91 0
-88 91 -93 0
88 -91 -93 0
93 -91 -88 0
88 91 93 0
-93 0
94 95 0
96 95 0
-94 -96 -95 0
-92 95 -97 0
92 -95 -97 0
97 -95 -92 0
92 95 97 0
-97 0
98 99 0
100 99 0
-98 -100 -99 0
-96 99 -101 0
96 -99 -101 0
101 -99 -96 0
96 99 101 0
-101 0
102 103 0
104 103 0
-102 -104 -103 0
-100 103 -105 0
100 -103 -105 0
105 -103 -100 0
100 103 105 0
-105 0
106 107 0
108 107 0
-106 -108 -107 0
-104 107 -109 0
104 -107 -109 0
109 -107 -104 0
104 107 109 0
-109 0
110 111 0
112 111 0
-110 -112 -111 0
-108 111 -113 0
108 -111 -113 0
113 -111 -108 0
108 111 113 0
-113 0
114 115 0
116 115 0
-114 -116 -115 0
-112 115 -117 0
112 -115 -117 0
117 -115 -112 0
112 115 117 0
-117 0
118 119 0
120 119 0
-118 -120 -119 0
-116 119 -121 0
116 -119 -121 0
121 -119 -116 0
116 119 121 0
-121 0
102 122 0
106 122 0
110 122 0
114 122 0
118 122 0
123 122 0
-124 0
-120 122 -125 0
120 -122 -125 0
125 -122 -120 0
120 122 125 0
-125 0
126 127 0
128 127 0
-126 -128 -127 0
-129 127 -130 0
129 -127 -130 0
130 -127 -129 0
129 127 130 0
-130 0
10 131 0
132 131 0
-10 -132 -131 0
-128 131 -133 0
128 -131 -133 0
133 -131 -128 0
128 131 133 0
-133 0
134 135 0
136 135 0
-134 -136 -135 0
-137 135 -138 0
137 -135 -138 0
138 -135 -137 0
137 135 138 0
-138 0
139 140 0
141 140 0
-139 -141 -140 0
-136 140 -142 0
136 -140 -142 0
142 -140 -136 0
136 140 142 0
-142 0
143 144 0
145 144 0
-143 -145 -144 0
-141 144 -146 0
141 -144 -146 0
146 -144 -141 0
141 144 146 0
-146 0
147 148 0
149 148 0
-147 -149 -148 0
-145 148 -150 0
145 -148 -150 0
150 -148 -145 0
145 148 150 0
-150 0
151 152 0
153 152 0
-151 -153 -152 0
-149 152 -154 0
149 -152 -154 0
154 -152 -149 0
149 152 154 0
-154 0
139 155 0
143 155 0
147 155 0
151 155 0
156 155 0
-157 0
-153 155 -158 0
153 -155 -158 0
158 -155 -153 0
153 155 158 0
-158 0
159 160 0
161 160 0
-159 -161 -160 0
-162 160 -163 0
162 -160 -163 0
163 -160 -162 0
162 160 163 0
-163 0
164 165 0
166 165 0
-164 -166 -165 0
-161 165 -167 0
161 -165 -167 0
167 -165 -161 0
161 165 167 0
-167 0
168 169 0
170 169 0
-168 -170 -169 0
-166 169 -171 0
166 -169 -171 0
171 -169 -166 0
166 169 171 0
-171 0
172 173 0
174 173 0
-172 -174 -173 0
-170 173 -175 0
170 -173 -175 0
175 -173 -170 0
170 173 175 0
-175 0
176 177 0
178 177 0
-176 -178 -177 0
-174 177 -179 0
174 -177 -179 0
179 -177 -174 0
174 177 179 0
-179 0
180 181 0
182 181 0
-180 -182 -181 0
-178 181 -183 0
178 -181 -183 0
183 -181 -178 0
178 181 183 0
-183 0
184 185 0
186 185 0
-184 -186 -185 0
-182 185 -187 0
182 -185 -187 0
187 -185 -182 0
182 185 187 0
-187 0
188 189 0
190 189 0
-188 -190 -189 0
-186 189 -191 0
186 -189 -191 0
191 -189 -186 0
186 189 191 0
-191 0
192 193 0
194 193 0
-192 -194 -193 0
-190 193 -195 0
190 -193 -195 0
195 -193 -190 0
190 193 195 0
-195 0
196 197 0
198 197 0
-196 -198 -197 0
-194 197 -199 0
194 -197 -199 0
199 -197 -194 0
194 197 199 0
-199 0
200 201 0
202 201 0
-200 -202 -201 0
-198 201 -203 0
198 -201 -203 0
203 -201 -198 0
198 201 203 0
-203 0
184 204 0
188 204 0
192 204 0
196 204 0
200 204 0
205 204 0
-206 0
-202 204 -207 0
202 -204 -207 0
207 -204 -202 0
202 204 207 0
-207 0
208 209 0
210 209 0
-208 -210 -209 0
-211 209 -212 0
211 -209 -212 0
212 -209 -211 0
211 209 212 0
-212 0
213 214 0
215 214 0
-213 -215 -214 0
-210 214 -216 0
210 -214 -216 0
216 -214 -210 0
210 214 216 0
-216 0
217 218 0
219 218 0
-217 -219 -218 0
-213 218 -220 0
213 -218 -220 0
220 -218 -213 0
213 218 220 0
-220 0
221 222 0
223 222 0
-221 -223 -222 0
-219 222 -224 0
219 -222 -224 0
224 -222 -219 0
219 222 224 0
-224 0
225 226 0
227 226 0
-225 -227 -226 0
-223 226 -228 0
223 -226 -228 0
228 -226 -223 0
223 226 228 0
-228 0
229 230 0
231 230 0
-229 -231 -230 0
-225 230 -232 0
225 -230 -232 0
232 -230 -225 0
225 230 232 0
-232 0
229 233 0
234 233 0
-229 -234 -233 0
-231 233 -235 0
231 -233 -235 0
235 -233 -231 0
231 233 235 0
-235 0
236 237 0
238 237 0
-236 -238 -237 0
-239 237 -240 0
239 -237 -240 0
240 -237 -239 0
239 237 240 0
-240 0
241 242 0
243 242 0
-241 -243 -242 0
-238 242 -244 0
238 -242 -244 0
244 -242 -238 0
238 242 244 0
-244 0
245 246 0
247 246 0
-245 -247 -246 0
-243 246 -248 0
243 -246 -248 0
248 -246 -243 0
243 246 248 0
-248 0
249 250 0
251 250 0
-249 -251 -250 0
-247 250 -252 0
247 -250 -252 0
252 -250 -247 0
247 250 252 0
-252 0
253 254 0
255 254 0
-253 -255 -254 0
-251 254 -256 0
251 -254 -256 0
256 -254 -251 0
251 254 256 0
-256 0
257 258 0
259 258 0
-257 -259 -258 0
-255 258 -260 0
255 -258 -260 0
260 -258 -255 0
255 258 260 0
-260 0
261 262 0
263 262 0
-261 -263 -262 0
-259 262 -264 0
259 -262 -264 0
264 -262 -259 0
259 262 264 0
-264 0
265 266 0
267 266 0
-265 -267 -266 0
-263 266 -268 0
263 -266 -268 0
268 -266 -263 0
263 266 268 0
-268 0
269 270 0
271 270 0
-269 -271 -270 0
-267 270 -272 0
267 -270 -272 0
272 -270 -267 0
267 270 272 0
-272 0
273 274 0
275 274 0
-273 -275 -274 0
-271 274 -276 0
271 -274 -276 0
276 -274 -271 0
271 274 276 0
-276 0
277 278 0
279 278 0
-277 -279 -278 0
-275 278 -280 0
275 -278 -280 0
280 -278 -275 0
275 278 280 0
-280 0
261 281 0
265 281 0
269 281 0
273 281 0
277 281 0
282 281 0
-283 0
-279 281 -284 0
279 -281 -284 0
284 -281 -279 0
279 281 284 0
-284 0
285 286 0
287 286 0
-285 -287 -286 0
-288 286 -289 0
288 -286 -289 0
289 -286 -288 0
288 286 289 0
-289 0
290 291 0
292 291 0
-290 -292 -291 0
-287 291 -293 0
287 -291 -293 0
293 -291 -287 0
287 291 293 0
-293 0
294 295 0
296 295 0
-294 -296 -295 0
-292 295 -297 0
292 -295 -297 0
297 -295 -292 0
292 295 297 0
-297 0
67 298 0
299 298 0
-67 -299 -298 0
-296 298 -300 0
296 -298 -300 0
300 -298 -296 0
296 298 300 0
-300 0
301 302 0
303 302 0
-301 -303 -302 0
-304 302 -305 0
304 -302 -305 0
305 -302 -304 0
304 302 305 0
-305 0
306 307 0
308 307 0
-306 -308 -307 0
-303 307 -309 0
303 -307 -309 0
309 -307 -303 0
303 307 309 0
-309 0
310 311 0
312 311 0
-310 -312 -311 0
-308 311 -313 0
308 -311 -313 0
313 -311 -308 0
308 311 313 0
-313 0
314 315 0
316 315 0
-314 -316 -315 0
-312 315 -317 0
312 -315 -317 0
317 -315 -312 0
312 315 317 0
-317 0
267 318 0
319 318 0
-267 -319 -318 0
-316 318 -320 0
316 -318 -320 0
320 -318 -316 0
316 318 320 0
-320 0
321 322 0
323 322 0
-321 -323 -322 0
-324 322 -325 0
324 -322 -325 0
325 -322 -324 0
324 322 325 0
-325 0
326 327 0
328 327 0
-326 -328 -327 0
-323 327 -329 0
323 -327 -329 0
329 -327 -323 0
323 327 329 0
-329 0
330 331 0
332 331 0
-330 -332 -331 0
-328 331 -333 0
328 -331 -333 0
333 -331 -328 0
328 331 333 0
-333 0
334 335 0
336 335 0
-334 -336 -335 0
-332 335 -337 0
332 -335 -337 0
337 -335 -332 0
332 335 337 0
-337 0
338 339 0
340 339 0
-338 -340 -339 0
-336 339 -341 0
336 -339 -341 0
341 -339 -336 0
336 339 341 0
-341 0
342 343 0
344 343 0
-342 -344 -343 0
-340 343 -345 0
340 -343 -345 0
345 -343 -340 0
340 343 345 0
-345 0
346 347 0
348 347 0
-346 -348 -347 0
-344 347 -349 0
344 -347 -349 0
349 -347 -344 0
344 347 349 0
-349 0
350 351 0
352 351 0
-350 -352 -351 0
-348 351 -353 0
348 -351 -353 0
353 -351 -348 0
348 351 353 0
-353 0
338 354 0
342 354 0
346 354 0
350 354 0
355 354 0
-356 0
-352 354 -357 0
352 -354 -357 0
357 -354 -352 0
352 354 357 0
-357 0
358 359 0
360 359 0
-358 -360 -359 0
-361 359 -362 0
361 -359 -362 0
362 -359 -361 0
361 359 362 0
-362 0
363 364 0
365 364 0
-363 -365 -364 0
-360 364 -366 0
360 -364 -366 0
366 -364 -360 0
360 364 366 0
-366 0
367 368 0
369 368 0
-367 -369 -368 0
-365 368 -370 0
365 -368 -370 0
370 -368 -365 0
365 368 370 0
-370 0
371 372 0
373 372 0
-371 -373 -372 0
-369 372 -374 0
369 -372 -374 0
374 -372 -369 0
369 372 374 0
-374 0
375 376 0
377 376 0
-375 -377 -376 0
-373 376 -378 0
373 -376 -378 0
378 -376 -373 0
373 376 378 0
-378 0
379 380 0
381 380 0
-379 -381 -380 0
-377 380 -382 0
377 -380 -382 0
382 -380 -377 0
377 380 382 0
-382 0
383 384 0
385 384 0
-383 -385 -384 0
-381 384 -386 0
381 -384 -386 0
386 -384 -381 0
381 384 386 0
-386 0
387 388 0
389 388 0
-387 -389 -388 0
-385 388 -390 0
385 -388 -390 0
390 -388 -385 0
385 388 390 0
-390 0
391 392 0
393 392 0
-391 -393 -392 0
-389 392 -394 0
389 -392 -394 0
394 -392 -389 0
389 392 394 0
-394 0
395 396 0
397 396 0
-395 -397 -396 0
-393 396 -398 0
393 -396 -398 0
398 -396 -393 0
393 396 398 0
-398 0
399 400 0
401 400 0
-399 -401 -400 0
-397 400 -402 0
397 -400 -402 0
402 -400 -397 0
397 400 402 0
-402 0
383 403 0
387 403 0
391 403 0
395 403 0
399 403 0
404 403 0
-405 0
-401 403 -406 0
401 -403 -406 0
406 -403 -401 0
401 403 406 0
-406 0
407 408 0
409 408 0
-407 -409 -408 0
-410 408 -411 0
410 -408 -411 0
411 -408 -410 0
410 408 411 0
-411 0
412 413 0
414 413 0
-412 -414 -413 0
-409 413 -415 0
409 -413 -415 0
415 -413 -409 0
409 413 415 0
-415 0
416 417 0
418 417 0
-416 -418 -417 0
-414 417 -419 0
414 -417 -419 0
419 -417 -414 0
414 417 419 0
-419 0
420 421 0
422 421 0
-420 -422 -421 0
-418 421 -423 0
418 -421 -423 0
423 -421 -418 0
418 421 423 0
-423 0
424 425 0
426 425 0
-424 -426 -425 0
-422 425 -427 0
422 -425 -427 0
427 -425 -422 0
422 425 427 0
-427 0
428 429 0
430 429 0
-428 -430 -429 0
-426 429 -431 0
426 -429 -431 0
431 -429 -426 0
426 429 431 0
-431 0
432 433 0
434 433 0
-432 -434 -433 0
-430 433 -435 0
430 -433 -435 0
435 -433 -430 0
430 433 435 0
-435 0
436 437 0
438 437 0
-436 -438 -437 0
-434 437 -439 0
434 -437 -439 0
439 -437 -434 0
434 437 439 0
-439 0
440 441 0
442 441 0
-440 -442 -441 0
-436 441 -443 0
436 -441 -443 0
443 -441 -436 0
436 441 443 0
-443 0
432 444 0
438 444 0
440 444 0
445 444 0
-446 0
-442 444 -447 0
442 -444 -447 0
447 -444 -442 0
442 444 447 0
-447 0
448 449 0
450 449 0
-448 -450 -449 0
-451 449 -452 0
451 -449 -452 0
452 -449 -451 0
451 449 452 0
-452 0
453 454 0
455 454 0
-453 -455 -454 0
-450 454 -456 0
450 -454 -456 0
456 -454 -450 0
450 454 456 0
-456 0
457 458 0
459 458 0
-457 -459 -458 0
-455 458 -460 0
455 -458 -460 0
460 -458 -455 0
455 458 460 0
-460 0
461 462 0
463 462 0
-461 -463 -462 0
-459 462 -464 0
459 -462 -464 0
464 -462 -459 0
459 462 464 0
-464 0
75 465 0
466 465 0
-75 -466 -465 0
-463 465 -467 0
463 -465 -467 0
467 -465 -463 0
463 465 467 0
-467 0
468 469 0
470 469 0
-468 -470 -469 0
-471 469 -472 0
471 -469 -472 0
472 -469 -471 0
471 469 472 0
-472 0
473 474 0
475 474 0
-473 -475 -474 0
-470 474 -476 0
470 -474 -476 0
476 -474 -470 0
470 474 476 0
-476 0
477 478 0
479 478 0
-477 -479 -478 0
-475 478 -480 0
475 -478 -480 0
480 -478 -475 0
475 478 480 0
-480 0
481 482 0
483 482 0
-481 -483 -482 0
-479 482 -484 0
479 -482 -484 0
484 -482 -479 0
479 482 484 0
-484 0
483 -485 0
485 -483 0
486 487 0
488 487 0
-486 -488 -487 0
-489 487 -490 0
489 -487 -490 0
490 -487 -489 0
489 487 490 0
-490 0
491 492 0
493 492 0
-491 -493 -492 0
-488 492 -494 0
488 -492 -494 0
494 -492 -488 0
488 492 494 0
-494 0
495 496 0
497 496 0
-495 -497 -496 0
-493 496 -498 0
493 -496 -498 0
498 -496 -493 0
493 496 498 0
-498 0
499 500 0
501 500 0
-499 -501 -500 0
-497 500 -502 0
497 -500 -502 0
502 -500 -497 0
497 500 502 0
-502 0
112 503 0
504 503 0
-112 -504 -503 0
-501 503 -505 0
501 -503 -505 0
505 -503 -501 0
501 503 505 0
-505 0
506 507 0
508 507 0
-506 -508 -507 0
-509 507 -510 0
509 -507 -510 0
510 -507 -509 0
509 507 510 0
-510 0
511 512 0
513 512 0
-511 -513 -512 0
-508 512 -514 0
508 -512 -514 0
514 -512 -508 0
508 512 514 0
-514 0
515 516 0
517 516 0
-515 -517 -516 0
-513 516 -518 0
513 -516 -518 0
518 -516 -513 0
513 516 518 0
-518 0
519 520 0
521 520 0
-519 -521 -520 0
-517 520 -522 0
517 -520 -522 0
522 -520 -517 0
517 520 522 0
-522 0
523 524 0
525 524 0
-523 -525 -524 0
-521 524 -526 0
521 -524 -526 0
526 -524 -521 0
521 524 526 0
-526 0
527 528 0
529 528 0
-527 -529 -528 0
-525 528 -530 0
525 -528 -530 0
530 -528 -525 0
525 528 530 0
-530 0
531 532 0
533 532 0
-531 -533 -532 0
-529 532 -534 0
529 -532 -534 0
534 -532 -529 0
529 532 534 0
-534 0
519 535 0
523 535 0
527 535 0
531 535 0
536 535 0
-537 0
-533 535 -538 0
533 -535 -538 0
538 -535 -533 0
533 535 538 0
-538 0
271 539 0
540 539 0
-271 -540 -539 0
-541 539 -542 0
541 -539 -542 0
542 -539 -541 0
541 539 542 0
-542 0
543 544 0
545 544 0
-543 -545 -544 0
-546 544 -547 0
546 -544 -547 0
547 -544 -546 0
546 544 547 0
-547 0
548 549 0
550 549 0
-548 -550 -549 0
-545 549 -551 0
545 -549 -551 0
551 -549 -545 0
545 549 551 0
-551 0
552 553 0
554 553 0
-552 -554 -553 0
-550 553 -555 0
550 -553 -555 0
555 -553 -550 0
550 553 555 0
-555 0
556 557 0
558 557 0
-556 -558 -557 0
-554 557 -559 0
554 -557 -559 0
559 -557 -554 0
554 557 559 0
-559 0
296 560 0
561 560 0
-296 -561 -560 0
-558 560 -562 0
558 -560 -562 0
562 -560 -558 0
558 560 562 0
-562 0
563 564 0
565 564 0
-563 -565 -564 0
-566 564 -567 0
566 -564 -567 0
567 -564 -566 0
566 564 567 0
-567 0
568 569 0
570 569 0
-568 -570 -569 0
-565 569 -571 0
565 -569 -571 0
571 -569 -565 0
565 569 571 0
-571 0
572 573 0
574 573 0
-572 -574 -573 0
-570 573 -575 0
570 -573 -575 0
575 -573 -570 0
570 573 575 0
-575 0
576 577 0
578 577 0
-576 -578 -577 0
-574 577 -579 0
574 -577 -579 0
579 -577 -574 0
574 577 579 0
-579 0
580 581 0
582 581 0
-580 -582 -581 0
-578 581 -583 0
578 -581 -583 0
583 -581 -578 0
578 581 583 0
-583 0
71 584 0
585 584 0
-71 -585 -584 0
-582 584 -586 0
582 -584 -586 0
586 -584 -582 0
582 584 586 0
-586 0
587 588 0
589 588 0
-587 -589 -588 0
-590 588 -591 0
590 -588 -591 0
591 -588 -590 0
590 588 591 0
-591 0
592 593 0
594 593 0
-592 -594 -593 0
-589 593 -595 0
589 -593 -595 0
595 -593 -589 0
589 593 595 0
-595 0
596 597 0
598 597 0
-596 -598 -597 0
-594 597 -599 0
594 -597 -599 0
599 -597 -594 0
594 597 599 0
-599 0
434 600 0
601 600 0
-434 -601 -600 0
-598 600 -602 0
598 -600 -602 0
602 -600 -598 0
598 600 602 0
-602 0
603 604 0
605 604 0
-603 -605 -604 0
-606 604 -607 0
606 -604 -607 0
607 -604 -606 0
606 604 607 0
-607 0
608 609 0
610 609 0
-608 -610 -609 0
-605 609 -611 0
605 -609 -611 0
611 -609 -605 0
605 609 611 0
-611 0
612 613 0
614 613 0
-612 -614 -613 0
-610 613 -615 0
610 -613 -615 0
615 -613 -610 0
610 613 615 0
-615 0
616 617 0
618 617 0
-616 -618 -617 0
-612 617 -619 0
612 -617 -619 0
619 -617 -612 0
612 617 619 0
-619 0
620 621 0
622 621 0
-620 -622 -621 0
-618 621 -623 0
618 -621 -623 0
623 -621 -618 0
618 621 623 0
-623 0
624 625 0
626 625 0
-624 -626 -625 0
-622 625 -627 0
622 -625 -627 0
627 -625 -622 0
622 625 627 0
-627 0
628 629 0
630 629 0
-628 -630 -629 0
-626 629 -631 0
626 -629 -631 0
631 -629 -626 0
626 629 631 0
-631 0
632 633 0
634 633 0
-632 -634 -633 0
-630 633 -635 0
630 -633 -635 0
635 -633 -630 0
630 633 635 0
-635 0
436 636 0
637 636 0
-436 -637 -636 0
-634 636 -638 0
634 -636 -638 0
638 -636 -634 0
634 636 638 0
-638 0
639 640 0
641 640 0
-639 -641 -640 0
-642 640 -643 0
642 -640 -643 0
643 -640 -642 0
642 640 643 0
-643 0
644 645 0
646 645 0
-644 -646 -645 0
-641 645 -647 0
641 -645 -647 0
647 -645 -641 0
641 645 647 0
-647 0
582 648 0
649 648 0
-582 -649 -648 0
-646 648 -650 0
646 -648 -650 0
650 -648 -646 0
646 648 650 0
-650 0
463 651 0
652 651 0
-463 -652 -651 0
-653 651 -654 0
653 -651 -654 0
654 -651 -653 0
653 651 654 0
-654 0
51 655 0
656 655 0
-51 -656 -655 0
-657 655 -658 0
657 -655 -658 0
658 -655 -657 0
657 655 658 0
-658 0
659 660 0
661 660 0
-659 -661 -660 0
-662 660 -663 0
662 -660 -663 0
663 -660 -662 0
662 660 663 0
-663 0
664 665 0
666 665 0
-664 -666 -665 0
-661 665 -667 0
661 -665 -667 0
667 -665 -661 0
661 665 667 0
-667 0
668 669 0
670 669 0
-668 -670 -669 0
-666 669 -671 0
666 -669 -671 0
671 -669 -666 0
666 669 671 0
-671 0
1 672 0
673 672 0
-1 -673 -672 0
-670 672 -674 0
670 -672 -674 0
674 -672 -670 0
670 672 674 0
-674 0
675 676 0
677 676 0
-675 -677 -676 0
-678 676 -679 0
678 -676 -679 0
679 -676 -678 0
678 676 679 0
-679 0
680 681 0
682 681 0
-680 -682 -681 0
-677 681 -683 0
677 -681 -683 0
683 -681 -677 0
677 681 683 0
-683 0
684 685 0
686 685 0
-684 -686 -685 0
-682 685 -687 0
682 -685 -687 0
687 -685 -682 0
682 685 687 0
-687 0
670 688 0
689 688 0
-670 -689 -688 0
-686 688 -690 0
686 -688 -690 0
690 -688 -686 0
686 688 690 0
-690 0
691 692 0
693 692 0
-691 -693 -692 0
-694 692 -695 0
694 -692 -695 0
695 -692 -694 0
694 692 695 0
-695 0
696 697 0
698 697 0
-696 -698 -697 0
-693 697 -699 0
693 -697 -699 0
699 -697 -693 0
693 697 699 0
-699 0
700 701 0
702 701 0
-700 -702 -701 0
-698 701 -703 0
698 -701 -703 0
703 -701 -698 0
698 701 703 0
-703 0
59 704 0
705 704 0
-59 -705 -704 0
-702 704 -706 0
702 -704 -706 0
706 -704 -702 0
702 704 706 0
-706 0
707 708 0
709 708 0
-707 -709 -708 0
-710 708 -711 0
710 -708 -711 0
711 -708 -710 0
710 708 711 0
-711 0
137 712 0
713 712 0
-137 -713 -712 0
-709 712 -714 0
709 -712 -714 0
714 -712 -709 0
709 712 714 0
-714 0
715 716 0
717 716 0
-715 -717 -716 0
-718 716 -719 0
718 -716 -719 0
719 -716 -718 0
718 716 719 0
-719 0
720 721 0
722 721 0
-720 -722 -721 0
-717 721 -723 0
717 -721 -723 0
723 -721 -717 0
717 721 723 0
-723 0
120 724 0
725 724 0
-120 -725 -724 0
-722 724 -726 0
722 -724 -726 0
726 -724 -722 0
722 724 726 0
-726 0
727 728 0
729 728 0
-727 -729 -728 0
-730 728 -731 0
730 -728 -731 0
731 -728 -730 0
730 728 731 0
-731 0
732 733 0
734 733 0
-732 -734 -733 0
-729 733 -735 0
729 -733 -735 0
735 -733 -729 0
729 733 735 0
-735 0
736 737 0
738 737 0
-736 -738 -737 0
-734 737 -739 0
734 -737 -739 0
739 -737 -734 0
734 737 739 0
-739 0
352 740 0
741 740 0
-352 -741 -740 0
-738 740 -742 0
738 -740 -742 0
742 -740 -738 0
738 740 742 0
-742 0
743 744 0
745 744 0
-743 -745 -744 0
-746 744 -747 0
746 -744 -747 0
747 -744 -746 0
746 744 747 0
-747 0
422 748 0
749 748 0
-422 -749 -748 0
-745 748 -750 0
745 -748 -750 0
750 -748 -745 0
745 748 750 0
-750 0
751 752 0
753 752 0
-751 -753 -752 0
-754 752 -755 0
754 -752 -755 0
755 -752 -754 0
754 752 755 0
-755 0
756 757 0
758 757 0
-756 -758 -757 0
-753 757 -759 0
753 -757 -759 0
759 -757 -753 0
753 757 759 0
-759 0
760 761 0
762 761 0
-760 -762 -761 0
-758 761 -763 0
758 -761 -763 0
763 -761 -758 0
758 761 763 0
-763 0
764 765 0
766 765 0
-764 -766 -765 0
-762 765 -767 0
762 -765 -767 0
767 -765 -762 0
762 765 767 0
-767 0
768 769 0
770 769 0
-768 -770 -769 0
-766 769 -771 0
766 -769 -771 0
771 -769 -766 0
766 769 771 0
-771 0
772 773 0
774 773 0
-772 -774 -773 0
-770 773 -775 0
770 -773 -775 0
775 -773 -770 0
770 773 775 0
-775 0
776 777 0
778 777 0
-776 -778 -777 0
-774 777 -779 0
774 -777 -779 0
779 -777 -774 0
774 777 779 0
-779 0
780 781 0
782 781 0
-780 -782 -781 0
-778 781 -783 0
778 -781 -783 0
783 -781 -778 0
778 781 783 0
-783 0
772 784 0
776 784 0
782 784 0
785 784 0
-786 0
-780 784 -787 0
780 -784 -787 0
787 -784 -780 0
780 784 787 0
-787 0
788 789 0
790 789 0
-788 -790 -789 0
-791 789 -792 0
791 -789 -792 0
792 -789 -791 0
791 789 792 0
-792 0
793 794 0
795 794 0
-793 -795 -794 0
-790 794 -796 0
790 -794 -796 0
796 -794 -790 0
790 794 796 0
-796 0
797 798 0
799 798 0
-797 -799 -798 0
-795 798 -800 0
795 -798 -800 0
800 -798 -795 0
795 798 800 0
-800 0
801 802 0
803 802 0
-801 -803 -802 0
-799 802 -804 0
799 -802 -804 0
804 -802 -799 0
799 802 804 0
-804 0
805 806 0
807 806 0
-805 -807 -806 0
-803 806 -808 0
803 -806 -808 0
808 -806 -803 0
803 806 808 0
-808 0
809 810 0
811 810 0
-809 -811 -810 0
-807 810 -812 0
807 -810 -812 0
812 -810 -807 0
807 810 812 0
-812 0
813 814 0
815 814 0
-813 -815 -814 0
-811 814 -816 0
811 -814 -816 0
816 -814 -811 0
811 814 816 0
-816 0
817 818 0
819 818 0
-817 -819 -818 0
-815 818 -820 0
815 -818 -820 0
820 -818 -815 0
815 818 820 0
-820 0
821 822 0
823 822 0
-821 -823 -822 0
-819 822 -824 0
819 -822 -824 0
824 -822 -819 0
819 822 824 0
-824 0
825 826 0
827 826 0
-825 -827 -826 0
-823 826 -828 0
823 -826 -828 0
828 -826 -823 0
823 826 828 0
-828 0
225 829 0
830 829 0
-225 -830 -829 0
-827 829 -831 0
827 -829 -831 0
831 -829 -827 0
827 829 831 0
-831 0
832 833 0
834 833 0
-832 -834 -833 0
-835 833 -836 0
835 -833 -836 0
836 -833 -835 0
835 833 836 0
-836 0
837 838 0
839 838 0
-837 -839 -838 0
-834 838 -840 0
834 -838 -840 0
840 -838 -834 0
834 838 840 0
-840 0
841 842 0
843 842 0
-841 -843 -842 0
-839 842 -844 0
839 -842 -844 0
844 -842 -839 0
839 842 844 0
-844 0
845 846 0
847 846 0
-845 -847 -846 0
-843 846 -848 0
843 -846 -848 0
848 -846 -843 0
843 846 848 0
-848 0
780 849 0
850 849 0
-780 -850 -849 0
-847 849 -851 0
847 -849 -851 0
851 -849 -847 0
847 849 851 0
-851 0
666 852 0
853 852 0
-666 -853 -852 0
-854 852 -855 0
854 -852 -855 0
855 -852 -854 0
854 852 855 0
-855 0
578 856 0
857 856 0
-578 -857 -856 0
-858 856 -859 0
858 -856 -859 0
859 -856 -858 0
858 856 859 0
-859 0
860 861 0
862 861 0
-860 -862 -861 0
-863 861 -864 0
863 -861 -864 0
864 -861 -863 0
863 861 864 0
-864 0
865 866 0
867 866 0
-865 -867 -866 0
-862 866 -868 0
862 -866 -868 0
868 -866 -862 0
862 866 868 0
-868 0
869 870 0
871 870 0
-869 -871 -870 0
-867 870 -872 0
867 -870 -872 0
872 -870 -867 0
867 870 872 0
-872 0
873 874 0
875 874 0
-873 -875 -874 0
-871 874 -876 0
871 -874 -876 0
876 -874 -871 0
871 874 876 0
-876 0
877 878 0
879 878 0
-877 -879 -878 0
-875 878 -880 0
875 -878 -880 0
880 -878 -875 0
875 878 880 0
-880 0
630 881 0
882 881 0
-630 -882 -881 0
-879 881 -883 0
879 -881 -883 0
883 -881 -879 0
879 881 883 0
-883 0
884 885 0
886 885 0
-884 -886 -885 0
-887 885 -888 0
887 -885 -888 0
888 -885 -887 0
887 885 888 0
-888 0
889 890 0
891 890 0
-889 -891 -890 0
-886 890 -892 0
886 -890 -892 0
892 -890 -886 0
886 890 892 0
-892 0
893 894 0
895 894 0
-893 -895 -894 0
-891 894 -896 0
891 -894 -896 0
896 -894 -891 0
891 894 896 0
-896 0
30 897 0
898 897 0
-30 -898 -897 0
-895 897 -899 0
895 -897 -899 0
899 -897 -895 0
895 897 899 0
-899 0
900 901 0
902 901 0
-900 -902 -901 0
-903 901 -904 0
903 -901 -904 0
904 -901 -903 0
903 901 904 0
-904 0
610 905 0
906 905 0
-610 -906 -905 0
-902 905 -907 0
902 -905 -907 0
907 -905 -902 0
902 905 907 0
-907 0
908 909 0
910 909 0
-908 -910 -909 0
-911 909 -912 0
911 -909 -912 0
912 -909 -911 0
911 909 912 0
-912 0
288 913 0
914 913 0
-288 -914 -913 0
-910 913 -915 0
910 -913 -915 0
915 -913 -910 0
910 913 915 0
-915 0
718 916 0
917 916 0
-718 -917 -916 0
-918 916 -919 0
918 -916 -919 0
919 -916 -918 0
918 916 919 0
-919 0
153 920 0
921 920 0
-153 -921 -920 0
-922 920 -923 0
922 -920 -923 0
923 -920 -922 0
922 920 923 0
-923 0
1 0
-6 0
-16 0
-43 0
-84 0
-129 0
-137 0
-162 0
-211 0
-213 0
-225 0
-239 0
-288 0
-304 0
-324 0
-361 0
-410 0
-436 0
-451 0
-471 0
-489 0
-509 0
-541 0
-546 0
-566 0
-590 0
-606 0
-612 0
-642 0
-653 0
-657 0
-662 0
-678 0
-694 0
-710 0
-718 0
-730 0
-746 0
-754 0
-780 0
-791 0
-835 0
-854 0
-858 0
-863 0
-887 0
-903 0
-911 0
-918 0
-922 0
